
Begin Projections
Cr:d
S:p
Te:p
End Projections

# for TB2J package; write the postitions of WF
write_xyz = true

# for TB2J package; write the WF Hamiltonian (Note for W90 version<2.1, it is hr_plot)
write_hr = true
write_u_matrices = true
write_rmn = true
write_bvec = true

dis_num_iter = 200
num_iter     = 100

exclude_bands = 1-10, 37-64

dis_win_min=-8.714143 # 0 # -6eV
dis_win_max=3.678299 # 0  # 4.8eV
dis_froz_min=-8.713943 # 0 #-6eV
dis_froz_max=0.677504 # 0 # 3.8eV

fermi_energy=-3.02309656 #

bands_plot = .true.

# VISUALIZE BANDS
wannier_plot = false
wannier_plot_list = 1 2 3 4   # PLOT THESE SELECTED WFs
wannier_plot_supercell = 1 # do not save larger than 3 (otherwise memory and performance issues?)


# PLOT WITH SPIN-TEXTURES
spin_decomp = true
spin_axis_azimuth = 0 #90 #0 #0 #90 #0 #0 # deg
spin_axis_polar = 0 #90 #90 #0 #90 #90 #90 # deg
iprint = 3
kpath = true
kpath_task = bands
kpath_bands_colour = spin


Begin Kpoint_Path
K 0.333333 0.333333 0.000000    G 0.000000 0.000000 0.000000
G 0.000000 0.000000 0.000000    M 0.500000 0.000000 0.000000
M 0.500000 0.000000 0.000000    K 0.333333 0.333333 0.000000
End Kpoint_Path

# This part was generated automatically by VASP
num_bands = 26
num_wann = 22
spinors = .true.
begin unit_cell_cart
     3.4278081     0.0000002     0.0000000
    -1.7139043     2.9685688     0.0000000
    -0.0000000     0.0000000    31.0668887
end unit_cell_cart
begin atoms_cart
Cr      -0.0000000     0.0000000     3.3936092
S        1.7139057     0.9895221     2.1469442
Te       0.0000022     1.9790469     5.4302446
end atoms_cart
mp_grid =    25    25     1
begin kpoints
      0.000000000000      0.000000000000      0.000000000000
      0.040000000000      0.000000000000      0.000000000000
      0.080000000000      0.000000000000      0.000000000000
      0.120000000000      0.000000000000      0.000000000000
      0.160000000000      0.000000000000      0.000000000000
      0.200000000000      0.000000000000      0.000000000000
      0.240000000000     -0.000000000000      0.000000000000
      0.280000000000      0.000000000000      0.000000000000
      0.320000000000      0.000000000000      0.000000000000
      0.360000000000      0.000000000000      0.000000000000
      0.400000000000      0.000000000000     -0.000000000000
      0.440000000000      0.000000000000      0.000000000000
      0.480000000000      0.000000000000     -0.000000000000
     -0.480000000000      0.000000000000      0.000000000000
     -0.440000000000      0.000000000000      0.000000000000
     -0.400000000000      0.000000000000      0.000000000000
     -0.360000000000      0.000000000000     -0.000000000000
     -0.320000000000     -0.000000000000     -0.000000000000
     -0.280000000000     -0.000000000000     -0.000000000000
     -0.240000000000      0.000000000000      0.000000000000
     -0.200000000000      0.000000000000     -0.000000000000
     -0.160000000000      0.000000000000     -0.000000000000
     -0.120000000000     -0.000000000000     -0.000000000000
     -0.080000000000      0.000000000000     -0.000000000000
     -0.040000000000      0.000000000000     -0.000000000000
     -0.000000000000      0.040000000000      0.000000000000
      0.040000000000      0.040000000000      0.000000000000
      0.080000000000      0.040000000000      0.000000000000
      0.120000000000      0.040000000000      0.000000000000
      0.160000000000      0.040000000000     -0.000000000000
      0.200000000000      0.040000000000      0.000000000000
      0.240000000000      0.040000000000      0.000000000000
      0.280000000000      0.040000000000      0.000000000000
      0.320000000000      0.040000000000      0.000000000000
      0.360000000000      0.040000000000      0.000000000000
      0.400000000000      0.040000000000      0.000000000000
      0.440000000000      0.040000000000      0.000000000000
      0.480000000000      0.040000000000     -0.000000000000
     -0.480000000000      0.040000000000      0.000000000000
     -0.440000000000      0.040000000000     -0.000000000000
     -0.400000000000      0.040000000000      0.000000000000
     -0.360000000000      0.040000000000     -0.000000000000
     -0.320000000000      0.040000000000     -0.000000000000
     -0.280000000000      0.040000000000     -0.000000000000
     -0.240000000000      0.040000000000      0.000000000000
     -0.200000000000      0.040000000000     -0.000000000000
     -0.160000000000      0.040000000000     -0.000000000000
     -0.120000000000      0.040000000000     -0.000000000000
     -0.080000000000      0.040000000000     -0.000000000000
     -0.040000000000      0.040000000000      0.000000000000
     -0.000000000000      0.080000000000      0.000000000000
      0.040000000000      0.080000000000      0.000000000000
      0.080000000000      0.080000000000      0.000000000000
      0.120000000000      0.080000000000      0.000000000000
      0.160000000000      0.080000000000      0.000000000000
      0.200000000000      0.080000000000      0.000000000000
      0.240000000000      0.080000000000     -0.000000000000
      0.280000000000      0.080000000000     -0.000000000000
      0.320000000000      0.080000000000      0.000000000000
      0.360000000000      0.080000000000      0.000000000000
      0.400000000000      0.080000000000      0.000000000000
      0.440000000000      0.080000000000      0.000000000000
      0.480000000000      0.080000000000      0.000000000000
     -0.480000000000      0.080000000000      0.000000000000
     -0.440000000000      0.080000000000      0.000000000000
     -0.400000000000      0.080000000000     -0.000000000000
     -0.360000000000      0.080000000000     -0.000000000000
     -0.320000000000      0.080000000000     -0.000000000000
     -0.280000000000      0.080000000000      0.000000000000
     -0.240000000000      0.080000000000     -0.000000000000
     -0.200000000000      0.080000000000     -0.000000000000
     -0.160000000000      0.080000000000     -0.000000000000
     -0.120000000000      0.080000000000     -0.000000000000
     -0.080000000000      0.080000000000      0.000000000000
     -0.040000000000      0.080000000000     -0.000000000000
      0.000000000000      0.120000000000      0.000000000000
      0.040000000000      0.120000000000      0.000000000000
      0.080000000000      0.120000000000      0.000000000000
      0.120000000000      0.120000000000      0.000000000000
      0.160000000000      0.120000000000      0.000000000000
      0.200000000000      0.120000000000     -0.000000000000
      0.240000000000      0.120000000000      0.000000000000
      0.280000000000      0.120000000000      0.000000000000
      0.320000000000      0.120000000000      0.000000000000
      0.360000000000      0.120000000000      0.000000000000
      0.400000000000      0.120000000000      0.000000000000
      0.440000000000      0.120000000000     -0.000000000000
      0.480000000000      0.120000000000      0.000000000000
     -0.480000000000      0.120000000000     -0.000000000000
     -0.440000000000      0.120000000000      0.000000000000
     -0.400000000000      0.120000000000     -0.000000000000
     -0.360000000000      0.120000000000     -0.000000000000
     -0.320000000000      0.120000000000     -0.000000000000
     -0.280000000000      0.120000000000      0.000000000000
     -0.240000000000      0.120000000000      0.000000000000
     -0.200000000000      0.120000000000     -0.000000000000
     -0.160000000000      0.120000000000     -0.000000000000
     -0.120000000000      0.120000000000     -0.000000000000
     -0.080000000000      0.120000000000      0.000000000000
     -0.040000000000      0.120000000000      0.000000000000
     -0.000000000000      0.160000000000      0.000000000000
      0.040000000000      0.160000000000      0.000000000000
      0.080000000000      0.160000000000      0.000000000000
      0.120000000000      0.160000000000      0.000000000000
      0.160000000000      0.160000000000      0.000000000000
      0.200000000000      0.160000000000      0.000000000000
      0.240000000000      0.160000000000      0.000000000000
      0.280000000000      0.160000000000      0.000000000000
      0.320000000000      0.160000000000      0.000000000000
      0.360000000000      0.160000000000      0.000000000000
      0.400000000000      0.160000000000     -0.000000000000
      0.440000000000      0.160000000000      0.000000000000
      0.480000000000      0.160000000000      0.000000000000
     -0.480000000000      0.160000000000      0.000000000000
     -0.440000000000      0.160000000000     -0.000000000000
     -0.400000000000      0.160000000000     -0.000000000000
     -0.360000000000      0.160000000000     -0.000000000000
     -0.320000000000      0.160000000000     -0.000000000000
     -0.280000000000      0.160000000000     -0.000000000000
     -0.240000000000      0.160000000000     -0.000000000000
     -0.200000000000      0.160000000000     -0.000000000000
     -0.160000000000      0.160000000000      0.000000000000
     -0.120000000000      0.160000000000     -0.000000000000
     -0.080000000000      0.160000000000     -0.000000000000
     -0.040000000000      0.160000000000     -0.000000000000
      0.000000000000      0.200000000000      0.000000000000
      0.040000000000      0.200000000000      0.000000000000
      0.080000000000      0.200000000000      0.000000000000
      0.120000000000      0.200000000000      0.000000000000
      0.160000000000      0.200000000000      0.000000000000
      0.200000000000      0.200000000000      0.000000000000
      0.240000000000      0.200000000000      0.000000000000
      0.280000000000      0.200000000000      0.000000000000
      0.320000000000      0.200000000000      0.000000000000
      0.360000000000      0.200000000000      0.000000000000
      0.400000000000      0.200000000000      0.000000000000
      0.440000000000      0.200000000000     -0.000000000000
      0.480000000000      0.200000000000     -0.000000000000
     -0.480000000000      0.200000000000      0.000000000000
     -0.440000000000      0.200000000000     -0.000000000000
     -0.400000000000      0.200000000000      0.000000000000
     -0.360000000000      0.200000000000     -0.000000000000
     -0.320000000000      0.200000000000     -0.000000000000
     -0.280000000000      0.200000000000     -0.000000000000
     -0.240000000000      0.200000000000      0.000000000000
     -0.200000000000      0.200000000000      0.000000000000
     -0.160000000000      0.200000000000      0.000000000000
     -0.120000000000      0.200000000000     -0.000000000000
     -0.080000000000      0.200000000000     -0.000000000000
     -0.040000000000      0.200000000000      0.000000000000
      0.000000000000      0.240000000000      0.000000000000
      0.040000000000      0.240000000000     -0.000000000000
      0.080000000000      0.240000000000      0.000000000000
      0.120000000000      0.240000000000      0.000000000000
      0.160000000000      0.240000000000      0.000000000000
      0.200000000000      0.240000000000      0.000000000000
      0.240000000000      0.240000000000     -0.000000000000
      0.280000000000      0.240000000000      0.000000000000
      0.320000000000      0.240000000000      0.000000000000
      0.360000000000      0.240000000000      0.000000000000
      0.400000000000      0.240000000000     -0.000000000000
      0.440000000000      0.240000000000     -0.000000000000
      0.480000000000      0.240000000000      0.000000000000
     -0.480000000000      0.240000000000     -0.000000000000
     -0.440000000000      0.240000000000      0.000000000000
     -0.400000000000      0.240000000000     -0.000000000000
     -0.360000000000      0.240000000000     -0.000000000000
     -0.320000000000      0.240000000000     -0.000000000000
     -0.280000000000      0.240000000000     -0.000000000000
     -0.240000000000      0.240000000000     -0.000000000000
     -0.200000000000      0.240000000000     -0.000000000000
     -0.160000000000      0.240000000000     -0.000000000000
     -0.120000000000      0.240000000000      0.000000000000
     -0.080000000000      0.240000000000      0.000000000000
     -0.040000000000      0.240000000000     -0.000000000000
     -0.000000000000      0.280000000000     -0.000000000000
      0.040000000000      0.280000000000      0.000000000000
      0.080000000000      0.280000000000      0.000000000000
      0.120000000000      0.280000000000      0.000000000000
      0.160000000000      0.280000000000      0.000000000000
      0.200000000000      0.280000000000      0.000000000000
      0.240000000000      0.280000000000     -0.000000000000
      0.280000000000      0.280000000000      0.000000000000
      0.320000000000      0.280000000000      0.000000000000
      0.360000000000      0.280000000000      0.000000000000
      0.400000000000      0.280000000000     -0.000000000000
      0.440000000000      0.280000000000     -0.000000000000
      0.480000000000      0.280000000000     -0.000000000000
     -0.480000000000      0.280000000000     -0.000000000000
     -0.440000000000      0.280000000000     -0.000000000000
     -0.400000000000      0.280000000000      0.000000000000
     -0.360000000000      0.280000000000     -0.000000000000
     -0.320000000000      0.280000000000     -0.000000000000
     -0.280000000000      0.280000000000     -0.000000000000
     -0.240000000000      0.280000000000      0.000000000000
     -0.200000000000      0.280000000000      0.000000000000
     -0.160000000000      0.280000000000      0.000000000000
     -0.120000000000      0.280000000000     -0.000000000000
     -0.080000000000      0.280000000000     -0.000000000000
     -0.040000000000      0.280000000000     -0.000000000000
      0.000000000000      0.320000000000      0.000000000000
      0.040000000000      0.320000000000      0.000000000000
      0.080000000000      0.320000000000      0.000000000000
      0.120000000000      0.320000000000      0.000000000000
      0.160000000000      0.320000000000      0.000000000000
      0.200000000000      0.320000000000      0.000000000000
      0.240000000000      0.320000000000      0.000000000000
      0.280000000000      0.320000000000      0.000000000000
      0.320000000000      0.320000000000      0.000000000000
      0.360000000000      0.320000000000      0.000000000000
      0.400000000000      0.320000000000      0.000000000000
      0.440000000000      0.320000000000      0.000000000000
      0.480000000000      0.320000000000      0.000000000000
     -0.480000000000      0.320000000000     -0.000000000000
     -0.440000000000      0.320000000000      0.000000000000
     -0.400000000000      0.320000000000      0.000000000000
     -0.360000000000      0.320000000000      0.000000000000
     -0.320000000000      0.320000000000      0.000000000000
     -0.280000000000      0.320000000000     -0.000000000000
     -0.240000000000      0.320000000000      0.000000000000
     -0.200000000000      0.320000000000     -0.000000000000
     -0.160000000000      0.320000000000     -0.000000000000
     -0.120000000000      0.320000000000     -0.000000000000
     -0.080000000000      0.320000000000      0.000000000000
     -0.040000000000      0.320000000000     -0.000000000000
     -0.000000000000      0.360000000000      0.000000000000
      0.040000000000      0.360000000000      0.000000000000
      0.080000000000      0.360000000000      0.000000000000
      0.120000000000      0.360000000000      0.000000000000
      0.160000000000      0.360000000000      0.000000000000
      0.200000000000      0.360000000000      0.000000000000
      0.240000000000      0.360000000000      0.000000000000
      0.280000000000      0.360000000000      0.000000000000
      0.320000000000      0.360000000000      0.000000000000
      0.360000000000      0.360000000000      0.000000000000
      0.400000000000      0.360000000000      0.000000000000
      0.440000000000      0.360000000000      0.000000000000
      0.480000000000      0.360000000000     -0.000000000000
     -0.480000000000      0.360000000000      0.000000000000
     -0.440000000000      0.360000000000     -0.000000000000
     -0.400000000000      0.360000000000      0.000000000000
     -0.360000000000      0.360000000000      0.000000000000
     -0.320000000000      0.360000000000     -0.000000000000
     -0.280000000000      0.360000000000      0.000000000000
     -0.240000000000      0.360000000000      0.000000000000
     -0.200000000000      0.360000000000     -0.000000000000
     -0.160000000000      0.360000000000     -0.000000000000
     -0.120000000000      0.360000000000     -0.000000000000
     -0.080000000000      0.360000000000      0.000000000000
     -0.040000000000      0.360000000000      0.000000000000
     -0.000000000000      0.400000000000     -0.000000000000
      0.040000000000      0.400000000000      0.000000000000
      0.080000000000      0.400000000000      0.000000000000
      0.120000000000      0.400000000000      0.000000000000
      0.160000000000      0.400000000000     -0.000000000000
      0.200000000000      0.400000000000      0.000000000000
      0.240000000000      0.400000000000     -0.000000000000
      0.280000000000      0.400000000000      0.000000000000
      0.320000000000      0.400000000000      0.000000000000
      0.360000000000      0.400000000000      0.000000000000
      0.400000000000      0.400000000000      0.000000000000
      0.440000000000      0.400000000000     -0.000000000000
      0.480000000000      0.400000000000     -0.000000000000
     -0.480000000000      0.400000000000      0.000000000000
     -0.440000000000      0.400000000000     -0.000000000000
     -0.400000000000      0.400000000000     -0.000000000000
     -0.360000000000      0.400000000000      0.000000000000
     -0.320000000000      0.400000000000      0.000000000000
     -0.280000000000      0.400000000000     -0.000000000000
     -0.240000000000      0.400000000000     -0.000000000000
     -0.200000000000      0.400000000000     -0.000000000000
     -0.160000000000      0.400000000000     -0.000000000000
     -0.120000000000      0.400000000000     -0.000000000000
     -0.080000000000      0.400000000000      0.000000000000
     -0.040000000000      0.400000000000      0.000000000000
      0.000000000000      0.440000000000      0.000000000000
      0.040000000000      0.440000000000      0.000000000000
      0.080000000000      0.440000000000      0.000000000000
      0.120000000000      0.440000000000      0.000000000000
      0.160000000000      0.440000000000      0.000000000000
      0.200000000000      0.440000000000      0.000000000000
      0.240000000000      0.440000000000      0.000000000000
      0.280000000000      0.440000000000      0.000000000000
      0.320000000000      0.440000000000      0.000000000000
      0.360000000000      0.440000000000      0.000000000000
      0.400000000000      0.440000000000      0.000000000000
      0.440000000000      0.440000000000     -0.000000000000
      0.480000000000      0.440000000000      0.000000000000
     -0.480000000000      0.440000000000     -0.000000000000
     -0.440000000000      0.440000000000     -0.000000000000
     -0.400000000000      0.440000000000     -0.000000000000
     -0.360000000000      0.440000000000      0.000000000000
     -0.320000000000      0.440000000000     -0.000000000000
     -0.280000000000      0.440000000000      0.000000000000
     -0.240000000000      0.440000000000      0.000000000000
     -0.200000000000      0.440000000000      0.000000000000
     -0.160000000000      0.440000000000      0.000000000000
     -0.120000000000      0.440000000000      0.000000000000
     -0.080000000000      0.440000000000      0.000000000000
     -0.040000000000      0.440000000000      0.000000000000
     -0.000000000000      0.480000000000     -0.000000000000
      0.040000000000      0.480000000000      0.000000000000
      0.080000000000      0.480000000000     -0.000000000000
      0.120000000000      0.480000000000      0.000000000000
      0.160000000000      0.480000000000      0.000000000000
      0.200000000000      0.480000000000      0.000000000000
      0.240000000000      0.480000000000     -0.000000000000
      0.280000000000      0.480000000000      0.000000000000
      0.320000000000      0.480000000000      0.000000000000
      0.360000000000      0.480000000000      0.000000000000
      0.400000000000      0.480000000000      0.000000000000
      0.440000000000      0.480000000000     -0.000000000000
      0.480000000000      0.480000000000     -0.000000000000
     -0.480000000000      0.480000000000     -0.000000000000
     -0.440000000000      0.480000000000     -0.000000000000
     -0.400000000000      0.480000000000      0.000000000000
     -0.360000000000      0.480000000000     -0.000000000000
     -0.320000000000      0.480000000000      0.000000000000
     -0.280000000000      0.480000000000     -0.000000000000
     -0.240000000000      0.480000000000      0.000000000000
     -0.200000000000      0.480000000000      0.000000000000
     -0.160000000000      0.480000000000      0.000000000000
     -0.120000000000      0.480000000000      0.000000000000
     -0.080000000000      0.480000000000      0.000000000000
     -0.040000000000      0.480000000000      0.000000000000
      0.000000000000     -0.480000000000      0.000000000000
      0.040000000000     -0.480000000000      0.000000000000
      0.080000000000     -0.480000000000      0.000000000000
      0.120000000000     -0.480000000000      0.000000000000
      0.160000000000     -0.480000000000     -0.000000000000
      0.200000000000     -0.480000000000     -0.000000000000
      0.240000000000     -0.480000000000      0.000000000000
      0.280000000000     -0.480000000000      0.000000000000
      0.320000000000     -0.480000000000     -0.000000000000
      0.360000000000     -0.480000000000      0.000000000000
      0.400000000000     -0.480000000000     -0.000000000000
      0.440000000000     -0.480000000000      0.000000000000
      0.480000000000     -0.480000000000      0.000000000000
     -0.480000000000     -0.480000000000      0.000000000000
     -0.440000000000     -0.480000000000      0.000000000000
     -0.400000000000     -0.480000000000     -0.000000000000
     -0.360000000000     -0.480000000000     -0.000000000000
     -0.320000000000     -0.480000000000     -0.000000000000
     -0.280000000000     -0.480000000000      0.000000000000
     -0.240000000000     -0.480000000000      0.000000000000
     -0.200000000000     -0.480000000000      0.000000000000
     -0.160000000000     -0.480000000000     -0.000000000000
     -0.120000000000     -0.480000000000     -0.000000000000
     -0.080000000000     -0.480000000000      0.000000000000
     -0.040000000000     -0.480000000000     -0.000000000000
     -0.000000000000     -0.440000000000     -0.000000000000
      0.040000000000     -0.440000000000     -0.000000000000
      0.080000000000     -0.440000000000     -0.000000000000
      0.120000000000     -0.440000000000      0.000000000000
      0.160000000000     -0.440000000000     -0.000000000000
      0.200000000000     -0.440000000000      0.000000000000
      0.240000000000     -0.440000000000      0.000000000000
      0.280000000000     -0.440000000000      0.000000000000
      0.320000000000     -0.440000000000      0.000000000000
      0.360000000000     -0.440000000000      0.000000000000
      0.400000000000     -0.440000000000      0.000000000000
      0.440000000000     -0.440000000000      0.000000000000
      0.480000000000     -0.440000000000      0.000000000000
     -0.480000000000     -0.440000000000      0.000000000000
     -0.440000000000     -0.440000000000      0.000000000000
     -0.400000000000     -0.440000000000     -0.000000000000
     -0.360000000000     -0.440000000000     -0.000000000000
     -0.320000000000     -0.440000000000     -0.000000000000
     -0.280000000000     -0.440000000000     -0.000000000000
     -0.240000000000     -0.440000000000     -0.000000000000
     -0.200000000000     -0.440000000000     -0.000000000000
     -0.160000000000     -0.440000000000     -0.000000000000
     -0.120000000000     -0.440000000000     -0.000000000000
     -0.080000000000     -0.440000000000     -0.000000000000
     -0.040000000000     -0.440000000000     -0.000000000000
      0.000000000000     -0.400000000000      0.000000000000
      0.040000000000     -0.400000000000     -0.000000000000
      0.080000000000     -0.400000000000     -0.000000000000
      0.120000000000     -0.400000000000      0.000000000000
      0.160000000000     -0.400000000000      0.000000000000
      0.200000000000     -0.400000000000      0.000000000000
      0.240000000000     -0.400000000000      0.000000000000
      0.280000000000     -0.400000000000      0.000000000000
      0.320000000000     -0.400000000000      0.000000000000
      0.360000000000     -0.400000000000      0.000000000000
      0.400000000000     -0.400000000000      0.000000000000
      0.440000000000     -0.400000000000      0.000000000000
      0.480000000000     -0.400000000000      0.000000000000
     -0.480000000000     -0.400000000000      0.000000000000
     -0.440000000000     -0.400000000000      0.000000000000
     -0.400000000000     -0.400000000000      0.000000000000
     -0.360000000000     -0.400000000000     -0.000000000000
     -0.320000000000     -0.400000000000     -0.000000000000
     -0.280000000000     -0.400000000000     -0.000000000000
     -0.240000000000     -0.400000000000      0.000000000000
     -0.200000000000     -0.400000000000     -0.000000000000
     -0.160000000000     -0.400000000000      0.000000000000
     -0.120000000000     -0.400000000000      0.000000000000
     -0.080000000000     -0.400000000000     -0.000000000000
     -0.040000000000     -0.400000000000     -0.000000000000
      0.000000000000     -0.360000000000     -0.000000000000
      0.040000000000     -0.360000000000      0.000000000000
      0.080000000000     -0.360000000000     -0.000000000000
      0.120000000000     -0.360000000000      0.000000000000
      0.160000000000     -0.360000000000      0.000000000000
      0.200000000000     -0.360000000000      0.000000000000
      0.240000000000     -0.360000000000     -0.000000000000
      0.280000000000     -0.360000000000      0.000000000000
      0.320000000000     -0.360000000000      0.000000000000
      0.360000000000     -0.360000000000     -0.000000000000
      0.400000000000     -0.360000000000     -0.000000000000
      0.440000000000     -0.360000000000      0.000000000000
      0.480000000000     -0.360000000000     -0.000000000000
     -0.480000000000     -0.360000000000      0.000000000000
     -0.440000000000     -0.360000000000     -0.000000000000
     -0.400000000000     -0.360000000000     -0.000000000000
     -0.360000000000     -0.360000000000     -0.000000000000
     -0.320000000000     -0.360000000000     -0.000000000000
     -0.280000000000     -0.360000000000      0.000000000000
     -0.240000000000     -0.360000000000     -0.000000000000
     -0.200000000000     -0.360000000000     -0.000000000000
     -0.160000000000     -0.360000000000      0.000000000000
     -0.120000000000     -0.360000000000     -0.000000000000
     -0.080000000000     -0.360000000000     -0.000000000000
     -0.040000000000     -0.360000000000     -0.000000000000
     -0.000000000000     -0.320000000000     -0.000000000000
      0.040000000000     -0.320000000000      0.000000000000
      0.080000000000     -0.320000000000      0.000000000000
      0.120000000000     -0.320000000000      0.000000000000
      0.160000000000     -0.320000000000      0.000000000000
      0.200000000000     -0.320000000000      0.000000000000
      0.240000000000     -0.320000000000     -0.000000000000
      0.280000000000     -0.320000000000      0.000000000000
      0.320000000000     -0.320000000000      0.000000000000
      0.360000000000     -0.320000000000      0.000000000000
      0.400000000000     -0.320000000000     -0.000000000000
      0.440000000000     -0.320000000000      0.000000000000
      0.480000000000     -0.320000000000      0.000000000000
     -0.480000000000     -0.320000000000     -0.000000000000
     -0.440000000000     -0.320000000000     -0.000000000000
     -0.400000000000     -0.320000000000      0.000000000000
     -0.360000000000     -0.320000000000     -0.000000000000
     -0.320000000000     -0.320000000000     -0.000000000000
     -0.280000000000     -0.320000000000     -0.000000000000
     -0.240000000000     -0.320000000000      0.000000000000
     -0.200000000000     -0.320000000000     -0.000000000000
     -0.160000000000     -0.320000000000     -0.000000000000
     -0.120000000000     -0.320000000000     -0.000000000000
     -0.080000000000     -0.320000000000     -0.000000000000
     -0.040000000000     -0.320000000000      0.000000000000
      0.000000000000     -0.280000000000      0.000000000000
      0.040000000000     -0.280000000000      0.000000000000
      0.080000000000     -0.280000000000      0.000000000000
      0.120000000000     -0.280000000000      0.000000000000
      0.160000000000     -0.280000000000      0.000000000000
      0.200000000000     -0.280000000000      0.000000000000
      0.240000000000     -0.280000000000      0.000000000000
      0.280000000000     -0.280000000000      0.000000000000
      0.320000000000     -0.280000000000      0.000000000000
      0.360000000000     -0.280000000000      0.000000000000
      0.400000000000     -0.280000000000     -0.000000000000
      0.440000000000     -0.280000000000      0.000000000000
      0.480000000000     -0.280000000000      0.000000000000
     -0.480000000000     -0.280000000000      0.000000000000
     -0.440000000000     -0.280000000000      0.000000000000