pymatgen with grid density = 603 / number of atoms
0
Gamma
25 25 1
