
Begin Projections
Cr:d
Te:p
End Projections

# for TB2J package; write the postitions of WF
write_xyz = true

# for TB2J package; write the WF Hamiltonian (Note for W90 version<2.1, it is hr_plot)
write_hr = true
write_u_matrices = true
write_rmn = true
write_bvec = true

dis_num_iter = 200
num_iter     = 100

exclude_bands = 1-10, 37-64

dis_win_min=-8.31797274  # -6eV
dis_win_max=2.48202726   # 4.8eV
dis_froz_min=-8.31797274  #-6eV
dis_froz_max=1.48202726  # 3.8eV

fermi_energy=-2.31796034

bands_plot = .true.

# VISUALIZE BANDS
wannier_plot = false
wannier_plot_list = 1 2 3 4   # PLOT THESE SELECTED WFs
wannier_plot_supercell = 1 # do not save larger than 3 (otherwise memory and performance issues?)


# PLOT WITH SPIN-TEXTURES
spin_decomp = true
spin_axis_azimuth = 0 #90 #0 #0 #90 #0 #0 # deg
spin_axis_polar = 0 #90 #90 #0 #90 #90 #90 # deg
iprint = 3
kpath = true
kpath_task = bands
kpath_bands_colour = spin


Begin Kpoint_Path
M 0.00  0.50  0.00    G 0.00  0.00  0.00
G 0.00  0.00  0.00    K 0.67 -0.33  0.00
K 0.67 -0.33  0.00    M 0.00  0.50  0.00
End Kpoint_Path

# This part was generated automatically by VASP
num_bands = 26
num_wann = 22
spinors = .true.
begin unit_cell_cart
     3.6277867     0.0000000     0.0000000
    -1.8138938     3.1417556     0.0000000
    -0.0000000     0.0000000    27.7362191
end unit_cell_cart
begin atoms_cart
Cr      -0.0000000     0.0000000     3.2648743
Te       1.8138950     1.0472508     1.5298555
Te       0.0000022     2.0945048     4.9998930
end atoms_cart
mp_grid =     5     5     1
begin kpoints
      0.000000000000      0.000000000000      0.000000000000
      0.200000000000     -0.000000000000      0.000000000000
      0.400000000000      0.000000000000      0.000000000000
     -0.400000000000     -0.000000000000     -0.000000000000
     -0.200000000000      0.000000000000     -0.000000000000
      0.000000000000      0.200000000000      0.000000000000
      0.200000000000      0.200000000000      0.000000000000
      0.400000000000      0.200000000000      0.000000000000
     -0.400000000000      0.200000000000     -0.000000000000
     -0.200000000000      0.200000000000     -0.000000000000
      0.000000000000      0.400000000000      0.000000000000
      0.200000000000      0.400000000000      0.000000000000
      0.400000000000      0.400000000000      0.000000000000
     -0.400000000000      0.400000000000     -0.000000000000
     -0.200000000000      0.400000000000     -0.000000000000
      0.000000000000     -0.400000000000      0.000000000000
      0.200000000000     -0.400000000000      0.000000000000
      0.400000000000     -0.400000000000      0.000000000000
     -0.400000000000     -0.400000000000     -0.000000000000
     -0.200000000000     -0.400000000000     -0.000000000000
      0.000000000000     -0.200000000000      0.000000000000
      0.200000000000     -0.200000000000      0.000000000000
      0.400000000000     -0.200000000000      0.000000000000
     -0.400000000000     -0.200000000000     -0.000000000000
     -0.200000000000     -0.200000000000     -0.000000000000
end kpoints
