Cr S Te                                 
   1.00000000000000     
     3.4278081240019178    0.0000002177592908   -0.0000000000000000
    -1.7139042930661457    2.9685688202375116    0.0000000000000000
    -0.0000000000000018    0.0000000000000001   31.0668887428357827
   Cr   S    Te
     1     1     1
Direct
 -0.0000000000000000 -0.0000000000000000  0.1092355665647219
  0.6666669999999968  0.3333330000000032  0.0691071513199275
  0.3333341747100889  0.6666669999999968  0.1747920327027586
 
  0.00000000E+00  0.00000000E+00  0.00000000E+00
  0.00000000E+00  0.00000000E+00  0.00000000E+00
  0.00000000E+00  0.00000000E+00  0.00000000E+00
